letting n =  10
letting blocks =  [[1, 3], [1, 8], [2, 1], [2, 3], [2, 4], [2, 5], [2, 8], [2, 9], [3, 2], [3, 5], [3, 6], [3, 7], [3, 8], [3, 9], [4, 1], [4, 9], [5, 2], [5, 7], [5, 8], [5, 9], [6, 3], [6, 4], [6, 9], [6, 10], [7, 3], [7, 4], [7, 5], [7, 6], [8, 4], [8, 6], [8, 7], [8, 10], [9, 2], [9, 4], [9, 5], [9, 9], [10, 1], [10, 4], [10, 5], [10, 7], [10, 8], [10, 10]]
